
Gurobi 9.5.0 (win64, Python) logging started Mon Dec 20 14:14:59 2021

Set parameter LogFile to value "gurobi.log"

Gurobi 9.5.0 (win64, Python) logging started Wed Dec 22 16:30:20 2021

Set parameter LogFile to value "gurobi.log"
